p edges 167 587
e 1 9
e 1 17
e 1 25
e 1 33
e 2 10
e 2 18
e 2 26
e 2 34
e 3 11
e 3 19
e 3 27
e 3 35
e 4 12
e 4 20
e 4 28
e 4 36
e 5 13
e 5 21
e 5 29
e 5 37
e 6 14
e 6 22
e 6 30
e 6 38
e 7 15
e 7 23
e 7 31
e 7 39
e 8 16
e 8 24
e 8 32
e 8 40
e 9 17
e 9 25
e 9 33
e 9 41
e 10 18
e 10 26
e 10 34
e 10 42
e 11 19
e 11 27
e 11 35
e 11 43
e 12 20
e 12 28
e 12 36
e 12 44
e 13 21
e 13 29
e 13 37
e 13 45
e 14 22
e 14 30
e 14 38
e 14 46
e 15 23
e 15 31
e 15 39
e 15 47
e 16 24
e 16 32
e 16 40
e 16 48
e 17 25
e 17 33
e 17 41
e 17 49
e 18 26
e 18 34
e 18 42
e 18 50
e 19 27
e 19 35
e 19 43
e 19 51
e 20 28
e 20 36
e 20 44
e 20 52
e 21 29
e 21 37
e 21 45
e 21 53
e 22 30
e 22 38
e 22 46
e 22 54
e 23 31
e 23 39
e 23 47
e 23 55
e 24 32
e 24 40
e 24 48
e 24 56
e 25 33
e 25 41
e 25 49
e 25 57
e 26 34
e 26 42
e 26 50
e 26 58
e 27 35
e 27 43
e 27 51
e 27 59
e 28 36
e 28 44
e 28 52
e 28 60
e 29 37
e 29 45
e 29 53
e 29 61
e 30 38
e 30 46
e 30 54
e 30 62
e 31 39
e 31 47
e 31 55
e 31 63
e 32 40
e 32 48
e 32 56
e 32 64
e 33 41
e 33 49
e 33 57
e 33 65
e 34 42
e 34 50
e 34 58
e 34 66
e 35 43
e 35 51
e 35 59
e 35 67
e 36 44
e 36 52
e 36 60
e 36 68
e 37 45
e 37 53
e 37 61
e 37 69
e 38 46
e 38 54
e 38 62
e 38 70
e 39 47
e 39 55
e 39 63
e 39 71
e 40 48
e 40 56
e 40 64
e 40 72
e 41 49
e 41 57
e 41 65
e 41 73
e 42 50
e 42 58
e 42 66
e 42 74
e 43 51
e 43 59
e 43 67
e 43 75
e 44 52
e 44 60
e 44 68
e 44 76
e 45 53
e 45 61
e 45 69
e 45 77
e 46 54
e 46 62
e 46 70
e 46 78
e 47 55
e 47 63
e 47 71
e 47 79
e 48 56
e 48 64
e 48 72
e 48 80
e 49 57
e 49 65
e 49 73
e 49 81
e 50 58
e 50 66
e 50 74
e 50 82
e 51 59
e 51 67
e 51 75
e 51 83
e 52 60
e 52 68
e 52 76
e 52 84
e 53 61
e 53 69
e 53 77
e 53 85
e 54 62
e 54 70
e 54 78
e 54 86
e 55 63
e 55 71
e 55 79
e 55 87
e 56 64
e 56 72
e 56 80
e 56 88
e 57 65
e 57 73
e 57 81
e 57 89
e 58 66
e 58 74
e 58 82
e 58 90
e 59 67
e 59 75
e 59 83
e 59 91
e 60 68
e 60 76
e 60 84
e 60 92
e 61 69
e 61 77
e 61 85
e 61 93
e 62 70
e 62 78
e 62 86
e 62 94
e 63 71
e 63 79
e 63 87
e 63 95
e 64 72
e 64 80
e 64 88
e 64 96
e 65 73
e 65 81
e 65 89
e 66 74
e 66 82
e 66 90
e 67 75
e 67 83
e 67 91
e 68 76
e 68 84
e 68 92
e 69 77
e 69 85
e 69 93
e 70 78
e 70 86
e 70 94
e 71 79
e 71 87
e 71 95
e 72 80
e 72 88
e 72 96
e 73 81
e 73 89
e 74 82
e 74 90
e 75 83
e 75 91
e 76 84
e 76 92
e 77 85
e 77 93
e 78 86
e 78 94
e 79 87
e 79 95
e 80 88
e 80 96
e 81 89
e 82 90
e 83 91
e 84 92
e 85 93
e 86 94
e 87 95
e 88 96
e 97 98
e 97 99
e 97 100
e 97 101
e 97 106
e 97 128
e 97 139
e 97 145
e 98 99
e 98 100
e 98 140
e 98 146
e 98 161
e 99 100
e 99 123
e 99 130
e 100 105
e 100 167
e 101 102
e 101 103
e 101 104
e 101 105
e 101 106
e 101 128
e 101 139
e 101 145
e 102 103
e 102 104
e 102 105
e 102 107
e 102 114
e 102 121
e 102 151
e 103 104
e 103 105
e 103 108
e 103 115
e 103 122
e 103 129
e 103 141
e 104 105
e 104 142
e 104 147
e 104 166
e 105 167
e 106 107
e 106 108
e 106 109
e 106 110
e 106 111
e 106 128
e 106 139
e 106 145
e 107 108
e 107 109
e 107 110
e 107 111
e 107 114
e 107 121
e 107 151
e 108 109
e 108 110
e 108 111
e 108 115
e 108 122
e 108 129
e 108 141
e 109 110
e 109 111
e 109 116
e 109 148
e 109 156
e 109 162
e 110 111
e 110 117
e 110 124
e 110 135
e 110 152
e 110 163
e 111 118
e 111 125
e 111 136
e 111 164
e 112 113
e 112 114
e 112 115
e 112 116
e 112 117
e 112 118
e 112 119
e 112 133
e 112 137
e 112 149
e 112 154
e 112 160
e 113 114
e 113 115
e 113 116
e 113 117
e 113 118
e 113 119
e 113 134
e 113 138
e 113 150
e 113 155
e 113 165
e 114 115
e 114 116
e 114 117
e 114 118
e 114 119
e 114 121
e 114 151
e 115 116
e 115 117
e 115 118
e 115 119
e 115 122
e 115 129
e 115 141
e 116 117
e 116 118
e 116 119
e 116 148
e 116 156
e 116 162
e 117 118
e 117 119
e 117 124
e 117 135
e 117 152
e 117 163
e 118 119
e 118 125
e 118 136
e 118 164
e 119 132
e 119 144
e 119 153
e 119 157
e 120 121
e 120 122
e 120 123
e 120 124
e 120 125
e 120 126
e 120 143
e 121 122
e 121 123
e 121 124
e 121 125
e 121 151
e 122 123
e 122 124
e 122 125
e 122 129
e 122 141
e 123 124
e 123 125
e 123 130
e 124 125
e 124 135
e 124 152
e 124 163
e 125 136
e 125 164
e 126 127
e 126 143
e 127 158
e 128 129
e 128 130
e 128 139
e 128 145
e 129 130
e 129 141
e 131 132
e 131 159
e 132 144
e 132 153
e 132 157
e 133 134
e 133 135
e 133 136
e 133 137
e 133 149
e 133 154
e 133 160
e 134 135
e 134 136
e 134 138
e 134 150
e 134 155
e 134 165
e 135 136
e 135 152
e 135 163
e 136 164
e 137 138
e 137 139
e 137 140
e 137 141
e 137 142
e 137 149
e 137 154
e 137 160
e 138 139
e 138 140
e 138 141
e 138 142
e 138 150
e 138 155
e 138 165
e 139 140
e 139 141
e 139 142
e 139 145
e 140 141
e 140 142
e 140 146
e 140 161
e 141 142
e 142 147
e 142 166
e 143 144
e 144 153
e 144 157
e 145 146
e 145 147
e 145 148
e 146 147
e 146 148
e 146 161
e 147 148
e 147 166
e 148 156
e 148 162
e 149 150
e 149 151
e 149 152
e 149 153
e 149 154
e 149 160
e 150 151
e 150 152
e 150 153
e 150 155
e 150 165
e 151 152
e 151 153
e 152 153
e 152 163
e 153 157
e 154 155
e 154 156
e 154 157
e 154 158
e 154 160
e 155 156
e 155 157
e 155 158
e 155 165
e 156 157
e 156 158
e 156 162
e 157 158
e 159 160
e 159 161
e 159 162
e 159 163
e 159 164
e 160 161
e 160 162
e 160 163
e 160 164
e 161 162
e 161 163
e 161 164
e 162 163
e 162 164
e 163 164
e 165 166
e 165 167
e 166 167
w 1 275
w 2 354
w 3 259
w 4 429
w 5 436
w 6 499
w 7 499
w 8 499
w 9 427
w 10 467
w 11 212
w 12 476
w 13 499
w 14 499
w 15 499
w 16 499
w 17 499
w 18 499
w 19 253
w 20 499
w 21 499
w 22 499
w 23 499
w 24 499
w 25 499
w 26 499
w 27 342
w 28 499
w 29 499
w 30 499
w 31 499
w 32 499
w 33 499
w 34 499
w 35 402
w 36 499
w 37 499
w 38 499
w 39 499
w 40 499
w 41 480
w 42 439
w 43 357
w 44 499
w 45 499
w 46 499
w 47 499
w 48 499
w 49 499
w 50 367
w 51 503
w 52 485
w 53 476
w 54 499
w 55 499
w 56 499
w 57 499
w 58 499
w 59 496
w 60 499
w 61 499
w 62 499
w 63 499
w 64 499
w 65 499
w 66 499
w 67 407
w 68 499
w 69 499
w 70 499
w 71 499
w 72 499
w 73 499
w 74 499
w 75 347
w 76 499
w 77 499
w 78 499
w 79 499
w 80 499
w 81 443
w 82 405
w 83 378
w 84 475
w 85 463
w 86 499
w 87 499
w 88 499
w 89 272
w 90 365
w 91 222
w 92 499
w 93 423
w 94 499
w 95 499
w 96 499
w 97 170
w 98 317
w 99 200
w 100 310
w 101 5
w 102 85
w 103 426
w 104 310
w 105 170
w 106 161
w 107 164
w 108 9
w 109 164
w 110 97
w 111 402
w 112 217
w 113 12
w 114 236
w 115 110
w 116 173
w 117 217
w 118 12
w 119 20
w 120 306
w 121 117
w 122 24
w 123 146
w 124 131
w 125 274
w 126 22
w 127 977
w 128 220
w 129 126
w 130 652
w 131 882
w 132 117
w 133 213
w 134 286
w 135 213
w 136 286
w 137 97
w 138 24
w 139 82
w 140 170
w 141 301
w 142 323
w 143 670
w 144 329
w 145 359
w 146 72
w 147 262
w 148 306
w 149 329
w 150 24
w 151 395
w 152 232
w 153 17
w 154 131
w 155 274
w 156 56
w 157 515
w 158 22
w 159 117
w 160 10
w 161 439
w 162 300
w 163 108
w 164 24
w 165 378
w 166 103
w 167 518
n 1 Y(1,1
n 2 Y(1,2
n 3 Y(1,3
n 4 Y(1,4
n 5 Y(1,5
n 6 Y(1,6
n 7 Y(1,7
n 8 Y(1,8
n 9 Y(2,1
n 10 Y(2,2
n 11 Y(2,3
n 12 Y(2,4
n 13 Y(2,5
n 14 Y(2,6
n 15 Y(2,7
n 16 Y(2,8
n 17 Y(3,1
n 18 Y(3,2
n 19 Y(3,3
n 20 Y(3,4
n 21 Y(3,5
n 22 Y(3,6
n 23 Y(3,7
n 24 Y(3,8
n 25 Y(4,1
n 26 Y(4,2
n 27 Y(4,3
n 28 Y(4,4
n 29 Y(4,5
n 30 Y(4,6
n 31 Y(4,7
n 32 Y(4,8
n 33 Y(5,1
n 34 Y(5,2
n 35 Y(5,3
n 36 Y(5,4
n 37 Y(5,5
n 38 Y(5,6
n 39 Y(5,7
n 40 Y(5,8
n 41 Y(6,1
n 42 Y(6,2
n 43 Y(6,3
n 44 Y(6,4
n 45 Y(6,5
n 46 Y(6,6
n 47 Y(6,7
n 48 Y(6,8
n 49 Y(7,1
n 50 Y(7,2
n 51 Y(7,3
n 52 Y(7,4
n 53 Y(7,5
n 54 Y(7,6
n 55 Y(7,7
n 56 Y(7,8
n 57 Y(8,1
n 58 Y(8,2
n 59 Y(8,3
n 60 Y(8,4
n 61 Y(8,5
n 62 Y(8,6
n 63 Y(8,7
n 64 Y(8,8
n 65 Y(9,1
n 66 Y(9,2
n 67 Y(9,3
n 68 Y(9,4
n 69 Y(9,5
n 70 Y(9,6
n 71 Y(9,7
n 72 Y(9,8
n 73 Y(10,1
n 74 Y(10,2
n 75 Y(10,3
n 76 Y(10,4
n 77 Y(10,5
n 78 Y(10,6
n 79 Y(10,7
n 80 Y(10,8
n 81 Y(11,1
n 82 Y(11,2
n 83 Y(11,3
n 84 Y(11,4
n 85 Y(11,5
n 86 Y(11,6
n 87 Y(11,7
n 88 Y(11,8
n 89 Y(12,1
n 90 Y(12,2
n 91 Y(12,3
n 92 Y(12,4
n 93 Y(12,5
n 94 Y(12,6
n 95 Y(12,7
n 96 Y(12,8
n 97 X(1,5
n 98 X(1,6
n 99 X(1,11
n 100 X(1,12
n 101 X(2,5
n 102 X(2,7
n 103 X(2,8
n 104 X(2,9
n 105 X(2,12
n 106 X(3,5
n 107 X(3,7
n 108 X(3,8
n 109 X(3,10
n 110 X(3,13
n 111 X(3,14
n 112 X(4,3
n 113 X(4,4
n 114 X(4,7
n 115 X(4,8
n 116 X(4,10
n 117 X(4,13
n 118 X(4,14
n 119 X(4,15
n 120 X(5,1
n 121 X(5,7
n 122 X(5,8
n 123 X(5,11
n 124 X(5,13
n 125 X(5,14
n 126 X(6,1
n 127 X(6,16
n 128 X(7,5
n 129 X(7,8
n 130 X(7,11
n 131 X(8,2
n 132 X(8,15
n 133 X(9,3
n 134 X(9,4
n 135 X(9,13
n 136 X(9,14
n 137 X(10,3
n 138 X(10,4
n 139 X(10,5
n 140 X(10,6
n 141 X(10,8
n 142 X(10,9
n 143 X(11,1
n 144 X(11,15
n 145 X(12,5
n 146 X(12,6
n 147 X(12,9
n 148 X(12,10
n 149 X(13,3
n 150 X(13,4
n 151 X(13,7
n 152 X(13,13
n 153 X(13,15
n 154 X(14,3
n 155 X(14,4
n 156 X(14,10
n 157 X(14,15
n 158 X(14,16
n 159 X(15,2
n 160 X(15,3
n 161 X(15,6
n 162 X(15,10
n 163 X(15,13
n 164 X(15,14
n 165 X(16,4
n 166 X(16,9
n 167 X(16,12
o 1 1
o 2 2
o 3 3
o 4 4
o 5 5
o 6 6
o 7 7
o 8 8
o 9 9
o 10 10
o 11 11
o 12 12
o 13 13
o 14 14
o 15 15
o 16 16
o 17 17
o 18 18
o 19 19
o 20 20
o 21 21
o 22 22
o 23 23
o 24 24
o 25 25
o 26 26
o 27 27
o 28 28
o 29 29
o 30 30
o 31 31
o 32 32
o 33 33
o 34 34
o 35 35
o 36 36
o 37 37
o 38 38
o 39 39
o 40 40
o 41 41
o 42 42
o 43 43
o 44 44
o 45 45
o 46 46
o 47 47
o 48 48
o 49 49
o 50 50
o 51 51
o 52 52
o 53 53
o 54 54
o 55 55
o 56 56
o 57 57
o 58 58
o 59 59
o 60 60
o 61 61
o 62 62
o 63 63
o 64 64
o 65 65
o 66 66
o 67 67
o 68 68
o 69 69
o 70 70
o 71 71
o 72 72
o 73 73
o 74 74
o 75 75
o 76 76
o 77 77
o 78 78
o 79 79
o 80 80
o 81 81
o 82 82
o 83 83
o 84 84
o 85 85
o 86 86
o 87 87
o 88 88
o 89 89
o 90 90
o 91 91
o 92 92
o 93 93
o 94 94
o 95 95
o 96 96
o 97 101
o 98 102
o 99 107
o 100 108
o 101 117
o 102 119
o 103 120
o 104 121
o 105 124
o 106 133
o 107 135
o 108 136
o 109 138
o 110 141
o 111 142
o 112 147
o 113 148
o 114 151
o 115 152
o 116 154
o 117 157
o 118 158
o 119 159
o 120 161
o 121 167
o 122 168
o 123 171
o 124 173
o 125 174
o 126 177
o 127 192
o 128 197
o 129 200
o 130 203
o 131 210
o 132 223
o 133 227
o 134 228
o 135 237
o 136 238
o 137 243
o 138 244
o 139 245
o 140 246
o 141 248
o 142 249
o 143 257
o 144 271
o 145 277
o 146 278
o 147 281
o 148 282
o 149 291
o 150 292
o 151 295
o 152 301
o 153 303
o 154 307
o 155 308
o 156 314
o 157 319
o 158 320
o 159 322
o 160 323
o 161 326
o 162 330
o 163 333
o 164 334
o 165 340
o 166 345
o 167 348
